20	5
0	7	11	1	2	4	5	3	15
1	1	14
2	1	9
3	0
4	0
5	3	7	14	18
6	1	10
7	2	6	17
8	1	16
9	1	17
10	1	12
11	1	7
12	1	20
13	2	17	6
14	1	8
15	0
16	2	13	9
17	1	21
18	1	21
19	1	21
20	1	21
21	0
0	0	0	0	0	0	0
1	2	0	4	3	2	4
2	1	0	5	3	0	4
3	7	3	3	3	0	4
4	10	0	4	0	3	0
5	7	0	3	2	1	0
6	4	2	3	5	1	3
7	4	4	4	4	5	2
8	3	1	0	2	3	5
9	5	0	4	4	1	0
10	7	5	1	0	0	4
11	8	1	4	0	3	3
12	3	4	1	5	3	1
13	3	0	1	0	5	1
14	10	5	1	4	1	5
15	7	0	1	3	5	2
16	9	1	3	0	0	0
17	6	5	0	3	2	1
18	9	3	0	0	2	3
19	7	5	2	3	3	2
20	3	2	0	4	4	1
21	0	0	0	0	0	0
5	5	5	5	5
